NAME 
ROWS
 N  OBJ
 L  R0      
 L  R1      
 E  R2      
COLUMNS
    MARKER    'MARKER'                 'INTORG'
    I0(3)     OBJ       -494
    I0(3)     R0        -479
    I0(3)     R1        -368
    I0(3)     R2        903
    I1(3)     OBJ       -837
    I1(3)     R0        -228
    I1(3)     R1        -109
    I1(3)     R2        18
    I2(3)     OBJ       -959
    I2(3)     R0        -462
    I2(3)     R1        -593
    I2(3)     R2        12
    I3(3)     OBJ       -602
    I3(3)     R0        -746
    I3(3)     R1        -574
    I3(3)     R2        650
    I4(3)     OBJ       -605
    I4(3)     R0        -791
    I4(3)     R1        -896
    I4(3)     R2        309
    I5(3)     OBJ       -227
    I5(3)     R0        -225
    I5(3)     R1        -548
    I5(3)     R2        202
    I6(3)     OBJ       -462
    I6(3)     R0        -692
    I6(3)     R1        -274
    I6(3)     R2        2
    I7(3)     OBJ       -581
    I7(3)     R0        -148
    I7(3)     R1        -549
    I7(3)     R2        826
    I8(3)     OBJ       -964
    I8(3)     R0        -97
    I8(3)     R1        -76
    I8(3)     R2        854
    I9(3)     OBJ       -716
    I9(3)     R0        -911
    I9(3)     R1        -520
    I9(3)     R2        935
    I10(3)    OBJ       -176
    I10(3)    R0        -332
    I10(3)    R1        -640
    I10(3)    R2        306
    I11(3)    OBJ       -113
    I11(3)    R0        -590
    I11(3)    R1        -555
    I11(3)    R2        222
    I12(3)    OBJ       -206
    I12(3)    R0        -748
    I12(3)    R1        -748
    I12(3)    R2        43
    I13(3)    OBJ       -787
    I13(3)    R0        -291
    I13(3)    R1        -101
    I13(3)    R2        898
    I14(3)    OBJ       -955
    I14(3)    R0        -191
    I14(3)    R1        -301
    I14(3)    R2        796
    I15(3)    OBJ       -700
    I15(3)    R0        -353
    I15(3)    R1        -539
    I15(3)    R2        939
    I16(3)    OBJ       -653
    I16(3)    R0        -517
    I16(3)    R1        -326
    I16(3)    R2        446
    I17(3)    OBJ       -529
    I17(3)    R0        -653
    I17(3)    R1        -992
    I17(3)    R2        69
    I18(3)    OBJ       -247
    I18(3)    R0        -933
    I18(3)    R1        -687
    I18(3)    R2        487
    I19(3)    OBJ       -91
    I19(3)    R0        -481
    I19(3)    R1        -422
    I19(3)    R2        522
    I20(1)    R2        1
    MARKER    'MARKER'                 'INTEND'
RHS
    RHS1      R0        -5973
    RHS1      R1        -6178
    RHS1      R2        4719
BOUNDS
 UP BND1      I0(3)     1
 UP BND1      I1(3)     1
 UP BND1      I2(3)     1
 UP BND1      I3(3)     1
 UP BND1      I4(3)     1
 UP BND1      I5(3)     1
 UP BND1      I6(3)     1
 UP BND1      I7(3)     1
 UP BND1      I8(3)     1
 UP BND1      I9(3)     1
 UP BND1      I10(3)    1
 UP BND1      I11(3)    1
 UP BND1      I12(3)    1
 UP BND1      I13(3)    1
 UP BND1      I14(3)    1
 UP BND1      I15(3)    1
 UP BND1      I16(3)    1
 UP BND1      I17(3)    1
 UP BND1      I18(3)    1
 UP BND1      I19(3)    1
 LI BND1      I20(1)    0
ENDATA
